\ENCODING=ISO-8859-1
\Problem name: ilog.cplex

Minimize
 obj1: x_2_9 - x_0_2 - x_2_10 + x_5_6 + x_0_3 - x_2_11 + x_0_4 - x_0_5 + x_0_8
       + x_0_9 - x_8_10 - x_8_11 - x_3_11 + x_1_9 + x_4_6 + 7
Subject To
 c1: x_0_2 - x_0_3 + x_2_11 + x_3_11 <= 2
 c2: x_0_2 + x_2_10 - x_0_8 + x_8_10 <= 2
Bounds
 0 <= x_2_9 <= 1
 0 <= x_0_2 <= 1
 0 <= x_2_10 <= 1
 0 <= x_5_6 <= 1
 0 <= x_0_3 <= 1
 0 <= x_2_11 <= 1
 0 <= x_0_4 <= 1
 0 <= x_0_5 <= 1
 0 <= x_0_8 <= 1
 0 <= x_0_9 <= 1
 0 <= x_8_10 <= 1
 0 <= x_8_11 <= 1
 0 <= x_3_11 <= 1
 0 <= x_1_9 <= 1
 0 <= x_4_6 <= 1
Generals
 x_2_9  x_0_2  x_2_10  x_5_6  x_0_3  x_2_11  x_0_4  x_0_5  x_0_8  x_0_9 
 x_8_10  x_8_11  x_3_11  x_1_9  x_4_6 
End
